1001 1 1 250 20 21 70 90 100
1002 1 1 1 40 60 100 150 200
1003 1 2 250 100 100 120 140 160
1004 0 3 10 20 21 70 90 100
1005 0 1 700 100 200 200 400 500
1006 0 1 4 100 100 120 140 160
1007 1 1 700 0 0 0 0 0 0 0 0 0 0 0 0 0 0
1008 1 1 1000 0 0 0 0 0 0 0 0 0 0 0 0 0 0
1009 1 1 90 20 21 70 90 100
1010 1 1 0 40 60 100 150 200
1011 1 2 5 100 100 120 140 160
1012 0 3 10 20 21 70 90 100
1013 0 1 500 100 200 200 400 500
1014 0 1 500 100 100 120 140 160
1015 1 3 90 0 0 0 0 0 0 0 0 0 0 0 0 0 0
1016 1 1 700 0 0 0 0 0 0 0 0 0 0 0 0 0 0
2001 1 1 0 20 21 70 90 100
2002 1 2 0 40 60 100 150 200
2003 1 2 250 100 100 120 140 160
2004 1 3 10 20 21 70 90 100
2005 0 1 90 100 200 200 400 500
2006 0 1 0 100 100 120 140 160
2007 0 3 700 0 0 0 0 0 0 0 0 0 0 0 0 0 0
2008 1 1 90 0 0 0 0 0 0 0 0 0 0 0 0 0 0
2009 1 1 0 20 21 70 90 100
2010 0 1 100 40 60 100 150 200
2011 1 2 5 100 100 120 140 160
2012 1 3 10 20 21 70 90 100
2013 0 1 0 100 200 200 400 500
2014 1 1 500 100 100 130 140 160
2015 0 1 0 0 0 32 0 0 0 0 0 0 0 0 0 0 0
2016 1 1 43 0 0 0 0 0 0 0 0 0 0 0 0 0 0
3001 1 1 0 20 21 70 90 100
3002 0 1 500 40 60 100 150 200
3003 1 2 5 100 100 120 140 16 250
3004 1 3 10 20 21 70 90 100
3005 1 1 0 100 200 200 400 500
3006 0 2 0 100 100 120 140 160
3007 1 3 0 0 0 0 0 0 0 0 0 0 0 0 0 0 0
3008 1 1 13 0 0 0 0 0 0 0 0 0 0 0 0 0 0
3009 0 1 100 20 21 70 90 100
3010 0 1 0 40 60 100 150 200
3011 1 2 5 100 100 120 140 160
3012 0 3 10 20 21 70 90 100
3013 1 1 0 100 200 200 400 500
3014 1 1 0 100 100 120 140 160
3015 1 1 60 0 0 0 0 0 0 0 0 0 0 0 0 0 0
3016 0 3 60 0 0 0 0 0 0 0 0 0 0 0 0 0 0
4001 1 1 0 20 21 70 90 100
4002 1 1 200 40 60 100 150 200
4003 1 2 5 100 100 120 140 160
4004 0 3 10 20 21 70 90 100
4005 0 1 53 101 202 203 404 505
4006 0 1 0 100 100 120 140 160
4007 0 1 90 0 0 0 0 0 0 0 0 0 0 0 0 0 0
4008 0 1 0 0 0 0 0 0 0 0 0 0 0 0 0 0 0
4009 1 1 200 20 21 70 90 100
4010 1 1 0 40 60 100 150 200
4011 1 2 5 100 100 120 140 160
4012 0 3 10 20 21 70 90 100
4013 1 1 9 100 200 200 400 500
4014 0 1 401 100 100 120 140 161
4015 1 1 402 0 0 0 0 0 0 0 0 0 0 0 0 0 0
4016 1 1 403 0 0 0 0 0 0 0 0 123 0 0 0 0 0
